proyfinal/src/viki/013/experimentInOfficeAgust.take6.output/5b19ac0c-b809-4fb8-8231-b97b3e53ca2e.als.dat
{'cnf.clauses': '118081',
 'cnf.totvars': '69608',
 'conflict literals': '9',
 'conflicts': '6',
 'decisions': '3041',
 'memused.mb': '14.71',
 'outcome': 'UNSAT',
 'propagations': '23248',
 'restarts': '1',
 'solver.msecs': 32,
 'task.msecs': 92}
