proyfinal/src/viki/013/experimentInOfficeAgust.take6.output/5b19ac0c-b809-4fb8-8231-b97b3e53ca2e.als.out
Reading from standard input... Use '--help' for help.
============================[ Problem Statistics ]=============================
|                                                                             |
|  Number of variables:         69608                                         |
|  Number of clauses:          118081                                         |
|  Parse time:                   0.02 s                                       |
|                                                                             |
============================[ Search Statistics ]==============================
| Conflicts |          ORIGINAL         |          LEARNT          | Progress |
|           |    Vars  Clauses Literals |    Limit  Clauses Lit/Cl |          |
===============================================================================
===============================================================================
restarts              : 1
conflicts             : 6              (183 /sec)
decisions             : 3041           (0.00 % random) (92770 /sec)
propagations          : 23248          (709213 /sec)
conflict literals     : 9              (0.00 % deleted)
Memory used           : 14.71 MB
CPU time              : 0.03278 s

UNSATISFIABLE
